c turning on binary mode checking
c parsing input formula with 932 variables and 2968 clauses
c finished parsing, read 50781429 bytes from proof file
c detected empty clause; start verification via backward checking
c 2494 of 2968 clauses in core                            
c 693558 of 874941 lemmas in core using 54315914 resolution steps
c 0 RAT lemmas in core; 498330 redundant literals in core lemmas
s VERIFIED
c verification time: 243.836 seconds
